(set-logic QF_S)
(declare-fun var0 () String)
(assert (str.in.re var0 (re.++ (re.* (re.union (str.to.re "00") (str.to.re "111"))) (re.++ (re.+ (re.* (str.to.re "2"))) (re.++ (re.* (re.* (str.to.re "333"))) (re.++ (re.union (re.union (str.to.re "44") (str.to.re "5")) (re.union (str.to.re "666") (str.to.re "7"))) (re.++ (re.+ (re.* (str.to.re "888"))) (re.++ (re.+ (re.+ (str.to.re "99"))) (re.++ (re.+ (re.* (str.to.re "a"))) (re.++ (re.* (re.+ (str.to.re "b"))) (re.++ (re.union (re.+ (str.to.re "ccc")) (re.+ (str.to.re "dd"))) (re.* (re.+ (str.to.re "eee"))))))))))))))
(assert (<= 1 (str.len var0)))
(check-sat)